(set-logic QF_NRA)
(set-info :source |Benchmarks generated from hycomp (https://es-static.fbk.eu/tools/hycomp/). BMC instances of non-linear hybrid automata taken from: Alessandro Cimatti, Sergio Mover, Stefano Tonetta, A quantifier-free SMT encoding of non-linear hybrid automata, FMCAD 2012 and Alessandro Cimatti, Sergio Mover, Stefano Tonetta, Quantier-free encoding of invariants for Hybrid Systems, Formal Methods in System Design. This instance solves a BMC problem of depth 3 and uses the quantifier free encoding with equivalences and lemmas encoding. Contacts: Sergio Mover (mover@fbk.eu), Stefano Tonetta (tonettas@fbk.eu), Alessandro Cimatti (cimatti@fbk.eu).|)
(set-info :smt-lib-version 2.0)
(set-info :category "industrial")
(set-info :status unsat)
;; MathSAT API call trace
;; generated on Mon Mar 19 10:41:26 2012
(declare-fun b.bool_atom__AT2 () Bool)
(declare-fun b.counter.1__AT1 () Bool)
(declare-fun b.y__AT2 () Real)
(declare-fun b.counter.2__AT1 () Bool)
(declare-fun b.time__AT2 () Real)
(declare-fun b.event_is_timed__AT0 () Bool)
(declare-fun b.time__AT3 () Real)
(declare-fun b.delta__AT2 () Real)
(declare-fun b.counter.3__AT1 () Bool)
(declare-fun b.bool_atom__AT0 () Bool)
(declare-fun b.delta__AT3 () Real)
(declare-fun b.x__AT0 () Real)
(declare-fun b.x__AT2 () Real)
(declare-fun b.EVENT.0__AT2 () Bool)
(declare-fun b.EVENT.0__AT3 () Bool)
(declare-fun b.counter.0__AT2 () Bool)
(declare-fun b.EVENT.1__AT2 () Bool)
(declare-fun b.delta__AT1 () Real)
(declare-fun b.counter.1__AT2 () Bool)
(declare-fun b.speed_y__AT1 () Real)
(declare-fun b.time__AT1 () Real)
(declare-fun b.EVENT.0__AT1 () Bool)
(declare-fun b.counter.2__AT2 () Bool)
(declare-fun b.event_is_timed__AT3 () Bool)
(declare-fun b.time__AT0 () Real)
(declare-fun b.EVENT.1__AT1 () Bool)
(declare-fun b.counter.3__AT2 () Bool)
(declare-fun b.speed_y__AT2 () Real)
(declare-fun b.delta__AT0 () Real)
(declare-fun b.EVENT.1__AT0 () Bool)
(declare-fun b.y__AT3 () Real)
(declare-fun b.counter.0__AT3 () Bool)
(declare-fun b.counter.1__AT3 () Bool)
(declare-fun b.y__AT0 () Real)
(declare-fun b.x__AT3 () Real)
(declare-fun b.counter.2__AT3 () Bool)
(declare-fun b.counter.0__AT0 () Bool)
(declare-fun b.EVENT.1__AT3 () Bool)
(declare-fun b.counter.3__AT3 () Bool)
(declare-fun b.EVENT.0__AT0 () Bool)
(declare-fun b.counter.3__AT0 () Bool)
(declare-fun b.counter.1__AT0 () Bool)
(declare-fun b.event_is_timed__AT1 () Bool)
(declare-fun b.bool_atom__AT1 () Bool)
(declare-fun b.bool_atom__AT3 () Bool)
(declare-fun b.speed_y__AT3 () Real)
(declare-fun b.g__AT0 () Real)
(declare-fun b.speed_y__AT0 () Real)
(declare-fun b.event_is_timed__AT2 () Bool)
(declare-fun b.x__AT1 () Real)
(declare-fun b.y__AT1 () Real)
(declare-fun b.counter.2__AT0 () Bool)
(declare-fun b.counter.0__AT1 () Bool)
(assert (let ((.def_68 (* (- 1.0) b.g__AT0)))
(let ((.def_71 (* (/ 1 2) .def_68)))
(let ((.def_83 (* 2.0 .def_71)))
(let ((.def_727 (* .def_83 b.delta__AT3)))
(let ((.def_728 (+ b.speed_y__AT3 .def_727)))
(let ((.def_745 (<= .def_728 0.0 )))
(let ((.def_746 (not .def_745)))
(let ((.def_743 (<= b.speed_y__AT3 0.0 )))
(let ((.def_766 (or .def_743 .def_746)))
(let ((.def_731 (<= 0.0 b.speed_y__AT3)))
(let ((.def_732 (not .def_731)))
(let ((.def_729 (<= 0.0 .def_728)))
(let ((.def_765 (or .def_729 .def_732)))
(let ((.def_767 (and .def_765 .def_766)))
(let ((.def_123 (<= 0.0 b.g__AT0)))
(let ((.def_768 (or .def_123 .def_767)))
(let ((.def_730 (not .def_729)))
(let ((.def_762 (or .def_730 .def_731)))
(let ((.def_744 (not .def_743)))
(let ((.def_761 (or .def_744 .def_745)))
(let ((.def_763 (and .def_761 .def_762)))
(let ((.def_118 (<= b.g__AT0 0.0 )))
(let ((.def_764 (or .def_118 .def_763)))
(let ((.def_769 (and .def_764 .def_768)))
(let ((.def_758 (and .def_743 .def_745)))
(let ((.def_757 (and .def_729 .def_731)))
(let ((.def_759 (or .def_757 .def_758)))
(let ((.def_718 (* b.speed_y__AT3 b.delta__AT3)))
(let ((.def_716 (* b.delta__AT3 b.delta__AT3)))
(let ((.def_717 (* .def_71 .def_716)))
(let ((.def_719 (+ .def_717 .def_718)))
(let ((.def_704 (* (- 1.0) b.x__AT3)))
(let ((.def_705 (* b.x__AT3 .def_704)))
(let ((.def_720 (* (- 1.0) .def_705)))
(let ((.def_723 (+ .def_720 .def_719)))
(let ((.def_724 (+ b.y__AT3 .def_723)))
(let ((.def_737 (<= .def_724 0.0 )))
(let ((.def_751 (not .def_737)))
(let ((.def_735 (<= b.y__AT3 .def_705)))
(let ((.def_752 (or .def_735 .def_751)))
(let ((.def_706 (<= .def_705 b.y__AT3)))
(let ((.def_749 (not .def_706)))
(let ((.def_725 (<= 0.0 .def_724)))
(let ((.def_750 (or .def_725 .def_749)))
(let ((.def_753 (and .def_750 .def_752)))
(let ((.def_747 (or .def_744 .def_746)))
(let ((.def_748 (not .def_747)))
(let ((.def_754 (or .def_748 .def_753)))
(let ((.def_739 (not .def_725)))
(let ((.def_740 (or .def_706 .def_739)))
(let ((.def_736 (not .def_735)))
(let ((.def_738 (or .def_736 .def_737)))
(let ((.def_741 (and .def_738 .def_740)))
(let ((.def_733 (or .def_730 .def_732)))
(let ((.def_734 (not .def_733)))
(let ((.def_742 (or .def_734 .def_741)))
(let ((.def_755 (and .def_742 .def_754)))
(let ((.def_726 (and .def_706 .def_725)))
(let ((.def_756 (and .def_726 .def_755)))
(let ((.def_760 (and .def_756 .def_759)))
(let ((.def_770 (and .def_760 .def_769)))
(let ((.def_60 (<= b.g__AT0 10.0 )))
(let ((.def_59 (<= 8.0 b.g__AT0)))
(let ((.def_61 (and .def_59 .def_60)))
(let ((.def_771 (and .def_61 .def_770)))
(let ((.def_412 (not b.counter.0__AT2)))
(let ((.def_402 (not b.counter.1__AT2)))
(let ((.def_710 (and .def_402 .def_412)))
(let ((.def_407 (not b.counter.2__AT2)))
(let ((.def_711 (and .def_407 .def_710)))
(let ((.def_421 (not b.counter.3__AT2)))
(let ((.def_712 (and .def_421 .def_711)))
(let ((.def_707 (and .def_61 .def_706)))
(let ((.def_701 (not b.EVENT.0__AT3)))
(let ((.def_699 (not b.EVENT.1__AT3)))
(let ((.def_702 (or .def_699 .def_701)))
(let ((.def_6 (not b.counter.0__AT3)))
(let ((.def_4 (not b.counter.1__AT3)))
(let ((.def_692 (or .def_4 .def_6)))
(let ((.def_696 (or b.counter.3__AT3 .def_692)))
(let ((.def_693 (or b.counter.2__AT3 .def_692)))
(let ((.def_9 (not b.counter.2__AT3)))
(let ((.def_691 (or .def_6 .def_9)))
(let ((.def_694 (and .def_691 .def_693)))
(let ((.def_12 (not b.counter.3__AT3)))
(let ((.def_695 (or .def_12 .def_694)))
(let ((.def_697 (and .def_695 .def_696)))
(let ((.def_703 (and .def_697 .def_702)))
(let ((.def_708 (and .def_703 .def_707)))
(let ((.def_686 (<= 0.0 b.delta__AT2)))
(let ((.def_492 (not b.EVENT.0__AT2)))
(let ((.def_490 (not b.EVENT.1__AT2)))
(let ((.def_564 (and .def_490 .def_492)))
(let ((.def_566 (not .def_564)))
(let ((.def_687 (or .def_566 .def_686)))
(let ((.def_688 (or b.EVENT.1__AT2 .def_687)))
(let ((.def_601 (= b.bool_atom__AT2 b.bool_atom__AT3)))
(let ((.def_597 (= b.counter.0__AT3 b.counter.0__AT2)))
(let ((.def_595 (= b.counter.1__AT3 b.counter.1__AT2)))
(let ((.def_593 (= b.counter.2__AT3 b.counter.2__AT2)))
(let ((.def_592 (= b.counter.3__AT3 b.counter.3__AT2)))
(let ((.def_594 (and .def_592 .def_593)))
(let ((.def_596 (and .def_594 .def_595)))
(let ((.def_598 (and .def_596 .def_597)))
(let ((.def_682 (and .def_598 .def_601)))
(let ((.def_683 (or .def_566 .def_682)))
(let ((.def_684 (or b.EVENT.1__AT2 .def_683)))
(let ((.def_671 (* .def_68 b.delta__AT2)))
(let ((.def_672 (* (- 1.0) b.speed_y__AT3)))
(let ((.def_675 (+ .def_672 .def_671)))
(let ((.def_676 (+ b.speed_y__AT2 .def_675)))
(let ((.def_677 (= .def_676 0.0 )))
(let ((.def_662 (* (- 1.0) b.y__AT3)))
(let ((.def_509 (* b.speed_y__AT2 b.delta__AT2)))
(let ((.def_666 (+ .def_509 .def_662)))
(let ((.def_507 (* b.delta__AT2 b.delta__AT2)))
(let ((.def_508 (* .def_71 .def_507)))
(let ((.def_667 (+ .def_508 .def_666)))
(let ((.def_668 (+ b.y__AT2 .def_667)))
(let ((.def_669 (= .def_668 0.0 )))
(let ((.def_584 (= b.x__AT2 b.x__AT3)))
(let ((.def_670 (and .def_584 .def_669)))
(let ((.def_678 (and .def_670 .def_677)))
(let ((.def_679 (or .def_566 .def_678)))
(let ((.def_587 (= b.y__AT2 b.y__AT3)))
(let ((.def_657 (and .def_584 .def_587)))
(let ((.def_590 (= b.speed_y__AT2 b.speed_y__AT3)))
(let ((.def_658 (and .def_590 .def_657)))
(let ((.def_654 (= b.delta__AT2 0.0 )))
(let ((.def_655 (and .def_564 .def_654)))
(let ((.def_656 (not .def_655)))
(let ((.def_659 (or .def_656 .def_658)))
(let ((.def_660 (or b.EVENT.1__AT2 .def_659)))
(let ((.def_647 (and .def_590 .def_598)))
(let ((.def_648 (or b.bool_atom__AT2 .def_647)))
(let ((.def_623 (or .def_6 b.counter.0__AT2)))
(let ((.def_622 (or b.counter.0__AT3 .def_412)))
(let ((.def_624 (and .def_622 .def_623)))
(let ((.def_625 (and .def_4 .def_624)))
(let ((.def_626 (or b.counter.1__AT2 .def_625)))
(let ((.def_621 (or b.counter.1__AT3 .def_402)))
(let ((.def_627 (and .def_621 .def_626)))
(let ((.def_638 (and .def_9 .def_627)))
(let ((.def_639 (or b.counter.2__AT2 .def_638)))
(let ((.def_633 (and .def_4 .def_412)))
(let ((.def_634 (or b.counter.1__AT2 .def_633)))
(let ((.def_635 (and .def_621 .def_634)))
(let ((.def_636 (and b.counter.2__AT3 .def_635)))
(let ((.def_637 (or .def_407 .def_636)))
(let ((.def_640 (and .def_637 .def_639)))
(let ((.def_641 (and b.counter.3__AT3 .def_640)))
(let ((.def_642 (or b.counter.3__AT2 .def_641)))
(let ((.def_628 (and b.counter.2__AT3 .def_627)))
(let ((.def_629 (or b.counter.2__AT2 .def_628)))
(let ((.def_617 (or b.counter.1__AT3 b.counter.1__AT2)))
(let ((.def_615 (and .def_4 b.counter.0__AT3)))
(let ((.def_616 (or .def_402 .def_615)))
(let ((.def_618 (and .def_616 .def_617)))
(let ((.def_619 (and .def_9 .def_618)))
(let ((.def_620 (or .def_407 .def_619)))
(let ((.def_630 (and .def_620 .def_629)))
(let ((.def_631 (and .def_12 .def_630)))
(let ((.def_632 (or .def_421 .def_631)))
(let ((.def_643 (and .def_632 .def_642)))
(let ((.def_612 (* b.speed_y__AT3 b.speed_y__AT3)))
(let ((.def_399 (* b.speed_y__AT2 b.speed_y__AT2)))
(let ((.def_613 (= .def_399 .def_612)))
(let ((.def_610 (+ b.speed_y__AT2 b.speed_y__AT3)))
(let ((.def_611 (= .def_610 0.0 )))
(let ((.def_614 (and .def_611 .def_613)))
(let ((.def_644 (and .def_614 .def_643)))
(let ((.def_609 (not b.bool_atom__AT2)))
(let ((.def_645 (or .def_609 .def_644)))
(let ((.def_495 (* (- 1.0) b.x__AT2)))
(let ((.def_496 (* b.x__AT2 .def_495)))
(let ((.def_606 (= b.y__AT2 .def_496)))
(let ((.def_522 (<= 0.0 b.speed_y__AT2)))
(let ((.def_523 (not .def_522)))
(let ((.def_607 (and .def_523 .def_606)))
(let ((.def_608 (= b.bool_atom__AT2 .def_607)))
(let ((.def_646 (and .def_608 .def_645)))
(let ((.def_649 (and .def_646 .def_648)))
(let ((.def_650 (and .def_584 .def_649)))
(let ((.def_651 (and .def_587 .def_650)))
(let ((.def_652 (or .def_564 .def_651)))
(let ((.def_653 (or b.EVENT.1__AT2 .def_652)))
(let ((.def_661 (and .def_653 .def_660)))
(let ((.def_680 (and .def_661 .def_679)))
(let ((.def_571 (= b.time__AT2 b.time__AT3)))
(let ((.def_585 (and .def_571 .def_584)))
(let ((.def_588 (and .def_585 .def_587)))
(let ((.def_591 (and .def_588 .def_590)))
(let ((.def_599 (and .def_591 .def_598)))
(let ((.def_602 (and .def_599 .def_601)))
(let ((.def_603 (or .def_490 .def_602)))
(let ((.def_574 (* (- 1.0) b.time__AT3)))
(let ((.def_577 (+ b.delta__AT2 .def_574)))
(let ((.def_578 (+ b.time__AT2 .def_577)))
(let ((.def_579 (= .def_578 0.0 )))
(let ((.def_580 (or .def_566 .def_579)))
(let ((.def_581 (or b.EVENT.1__AT2 .def_580)))
(let ((.def_572 (or .def_564 .def_571)))
(let ((.def_573 (or b.EVENT.1__AT2 .def_572)))
(let ((.def_582 (and .def_573 .def_581)))
(let ((.def_604 (and .def_582 .def_603)))
(let ((.def_568 (= .def_566 b.event_is_timed__AT3)))
(let ((.def_565 (= b.event_is_timed__AT2 .def_564)))
(let ((.def_569 (and .def_565 .def_568)))
(let ((.def_605 (and .def_569 .def_604)))
(let ((.def_681 (and .def_605 .def_680)))
(let ((.def_685 (and .def_681 .def_684)))
(let ((.def_689 (and .def_685 .def_688)))
(let ((.def_690 (and .def_490 .def_689)))
(let ((.def_709 (and .def_690 .def_708)))
(let ((.def_713 (and .def_709 .def_712)))
(let ((.def_518 (* .def_83 b.delta__AT2)))
(let ((.def_519 (+ b.speed_y__AT2 .def_518)))
(let ((.def_536 (<= .def_519 0.0 )))
(let ((.def_537 (not .def_536)))
(let ((.def_534 (<= b.speed_y__AT2 0.0 )))
(let ((.def_557 (or .def_534 .def_537)))
(let ((.def_520 (<= 0.0 .def_519)))
(let ((.def_556 (or .def_520 .def_523)))
(let ((.def_558 (and .def_556 .def_557)))
(let ((.def_559 (or .def_123 .def_558)))
(let ((.def_521 (not .def_520)))
(let ((.def_553 (or .def_521 .def_522)))
(let ((.def_535 (not .def_534)))
(let ((.def_552 (or .def_535 .def_536)))
(let ((.def_554 (and .def_552 .def_553)))
(let ((.def_555 (or .def_118 .def_554)))
(let ((.def_560 (and .def_555 .def_559)))
(let ((.def_549 (and .def_534 .def_536)))
(let ((.def_548 (and .def_520 .def_522)))
(let ((.def_550 (or .def_548 .def_549)))
(let ((.def_510 (+ .def_508 .def_509)))
(let ((.def_511 (* (- 1.0) .def_496)))
(let ((.def_514 (+ .def_511 .def_510)))
(let ((.def_515 (+ b.y__AT2 .def_514)))
(let ((.def_528 (<= .def_515 0.0 )))
(let ((.def_542 (not .def_528)))
(let ((.def_526 (<= b.y__AT2 .def_496)))
(let ((.def_543 (or .def_526 .def_542)))
(let ((.def_497 (<= .def_496 b.y__AT2)))
(let ((.def_540 (not .def_497)))
(let ((.def_516 (<= 0.0 .def_515)))
(let ((.def_541 (or .def_516 .def_540)))
(let ((.def_544 (and .def_541 .def_543)))
(let ((.def_538 (or .def_535 .def_537)))
(let ((.def_539 (not .def_538)))
(let ((.def_545 (or .def_539 .def_544)))
(let ((.def_530 (not .def_516)))
(let ((.def_531 (or .def_497 .def_530)))
(let ((.def_527 (not .def_526)))
(let ((.def_529 (or .def_527 .def_528)))
(let ((.def_532 (and .def_529 .def_531)))
(let ((.def_524 (or .def_521 .def_523)))
(let ((.def_525 (not .def_524)))
(let ((.def_533 (or .def_525 .def_532)))
(let ((.def_546 (and .def_533 .def_545)))
(let ((.def_517 (and .def_497 .def_516)))
(let ((.def_547 (and .def_517 .def_546)))
(let ((.def_551 (and .def_547 .def_550)))
(let ((.def_561 (and .def_551 .def_560)))
(let ((.def_562 (and .def_61 .def_561)))
(let ((.def_199 (not b.counter.0__AT1)))
(let ((.def_189 (not b.counter.1__AT1)))
(let ((.def_501 (and .def_189 .def_199)))
(let ((.def_194 (not b.counter.2__AT1)))
(let ((.def_502 (and .def_194 .def_501)))
(let ((.def_208 (not b.counter.3__AT1)))
(let ((.def_503 (and .def_208 .def_502)))
(let ((.def_498 (and .def_61 .def_497)))
(let ((.def_493 (or .def_490 .def_492)))
(let ((.def_483 (or .def_402 .def_412)))
(let ((.def_487 (or b.counter.3__AT2 .def_483)))
(let ((.def_484 (or b.counter.2__AT2 .def_483)))
(let ((.def_482 (or .def_407 .def_412)))
(let ((.def_485 (and .def_482 .def_484)))
(let ((.def_486 (or .def_421 .def_485)))
(let ((.def_488 (and .def_486 .def_487)))
(let ((.def_494 (and .def_488 .def_493)))
(let ((.def_499 (and .def_494 .def_498)))
(let ((.def_477 (<= 0.0 b.delta__AT1)))
(let ((.def_278 (not b.EVENT.0__AT1)))
(let ((.def_276 (not b.EVENT.1__AT1)))
(let ((.def_347 (and .def_276 .def_278)))
(let ((.def_349 (not .def_347)))
(let ((.def_478 (or .def_349 .def_477)))
(let ((.def_479 (or b.EVENT.1__AT1 .def_478)))
(let ((.def_388 (= b.bool_atom__AT1 b.bool_atom__AT2)))
(let ((.def_384 (= b.counter.0__AT1 b.counter.0__AT2)))
(let ((.def_381 (= b.counter.1__AT1 b.counter.1__AT2)))
(let ((.def_378 (= b.counter.2__AT1 b.counter.2__AT2)))
(let ((.def_376 (= b.counter.3__AT1 b.counter.3__AT2)))
(let ((.def_379 (and .def_376 .def_378)))
(let ((.def_382 (and .def_379 .def_381)))
(let ((.def_385 (and .def_382 .def_384)))
(let ((.def_473 (and .def_385 .def_388)))
(let ((.def_474 (or .def_349 .def_473)))
(let ((.def_475 (or b.EVENT.1__AT1 .def_474)))
(let ((.def_462 (* .def_68 b.delta__AT1)))
(let ((.def_463 (* (- 1.0) b.speed_y__AT2)))
(let ((.def_466 (+ .def_463 .def_462)))
(let ((.def_467 (+ b.speed_y__AT1 .def_466)))
(let ((.def_468 (= .def_467 0.0 )))
(let ((.def_453 (* (- 1.0) b.y__AT2)))
(let ((.def_292 (* b.speed_y__AT1 b.delta__AT1)))
(let ((.def_457 (+ .def_292 .def_453)))
(let ((.def_290 (* b.delta__AT1 b.delta__AT1)))
(let ((.def_291 (* .def_71 .def_290)))
(let ((.def_458 (+ .def_291 .def_457)))
(let ((.def_459 (+ b.y__AT1 .def_458)))
(let ((.def_460 (= .def_459 0.0 )))
(let ((.def_367 (= b.x__AT1 b.x__AT2)))
(let ((.def_461 (and .def_367 .def_460)))
(let ((.def_469 (and .def_461 .def_468)))
(let ((.def_470 (or .def_349 .def_469)))
(let ((.def_370 (= b.y__AT1 b.y__AT2)))
(let ((.def_448 (and .def_367 .def_370)))
(let ((.def_373 (= b.speed_y__AT1 b.speed_y__AT2)))
(let ((.def_449 (and .def_373 .def_448)))
(let ((.def_445 (= b.delta__AT1 0.0 )))
(let ((.def_446 (and .def_347 .def_445)))
(let ((.def_447 (not .def_446)))
(let ((.def_450 (or .def_447 .def_449)))
(let ((.def_451 (or b.EVENT.1__AT1 .def_450)))
(let ((.def_438 (and .def_373 .def_385)))
(let ((.def_439 (or b.bool_atom__AT1 .def_438)))
(let ((.def_413 (or b.counter.0__AT1 .def_412)))
(let ((.def_411 (or .def_199 b.counter.0__AT2)))
(let ((.def_414 (and .def_411 .def_413)))
(let ((.def_415 (and .def_402 .def_414)))
(let ((.def_416 (or b.counter.1__AT1 .def_415)))
(let ((.def_410 (or .def_189 b.counter.1__AT2)))
(let ((.def_417 (and .def_410 .def_416)))
(let ((.def_429 (and .def_407 .def_417)))
(let ((.def_430 (or b.counter.2__AT1 .def_429)))
(let ((.def_424 (and .def_199 .def_402)))
(let ((.def_425 (or b.counter.1__AT1 .def_424)))
(let ((.def_426 (and .def_410 .def_425)))
(let ((.def_427 (and b.counter.2__AT2 .def_426)))
(let ((.def_428 (or .def_194 .def_427)))
(let ((.def_431 (and .def_428 .def_430)))
(let ((.def_432 (and b.counter.3__AT2 .def_431)))
(let ((.def_433 (or b.counter.3__AT1 .def_432)))
(let ((.def_418 (and b.counter.2__AT2 .def_417)))
(let ((.def_419 (or b.counter.2__AT1 .def_418)))
(let ((.def_405 (or b.counter.1__AT1 b.counter.1__AT2)))
(let ((.def_403 (and b.counter.0__AT2 .def_402)))
(let ((.def_404 (or .def_189 .def_403)))
(let ((.def_406 (and .def_404 .def_405)))
(let ((.def_408 (and .def_406 .def_407)))
(let ((.def_409 (or .def_194 .def_408)))
(let ((.def_420 (and .def_409 .def_419)))
(let ((.def_422 (and .def_420 .def_421)))
(let ((.def_423 (or .def_208 .def_422)))
(let ((.def_434 (and .def_423 .def_433)))
(let ((.def_185 (* b.speed_y__AT1 b.speed_y__AT1)))
(let ((.def_400 (= .def_185 .def_399)))
(let ((.def_397 (+ b.speed_y__AT1 b.speed_y__AT2)))
(let ((.def_398 (= .def_397 0.0 )))
(let ((.def_401 (and .def_398 .def_400)))
(let ((.def_435 (and .def_401 .def_434)))
(let ((.def_396 (not b.bool_atom__AT1)))
(let ((.def_436 (or .def_396 .def_435)))
(let ((.def_281 (* (- 1.0) b.x__AT1)))
(let ((.def_282 (* b.x__AT1 .def_281)))
(let ((.def_393 (= b.y__AT1 .def_282)))
(let ((.def_305 (<= 0.0 b.speed_y__AT1)))
(let ((.def_306 (not .def_305)))
(let ((.def_394 (and .def_306 .def_393)))
(let ((.def_395 (= b.bool_atom__AT1 .def_394)))
(let ((.def_437 (and .def_395 .def_436)))
(let ((.def_440 (and .def_437 .def_439)))
(let ((.def_441 (and .def_367 .def_440)))
(let ((.def_442 (and .def_370 .def_441)))
(let ((.def_443 (or .def_347 .def_442)))
(let ((.def_444 (or b.EVENT.1__AT1 .def_443)))
(let ((.def_452 (and .def_444 .def_451)))
(let ((.def_471 (and .def_452 .def_470)))
(let ((.def_354 (= b.time__AT1 b.time__AT2)))
(let ((.def_368 (and .def_354 .def_367)))
(let ((.def_371 (and .def_368 .def_370)))
(let ((.def_374 (and .def_371 .def_373)))
(let ((.def_386 (and .def_374 .def_385)))
(let ((.def_389 (and .def_386 .def_388)))
(let ((.def_390 (or .def_276 .def_389)))
(let ((.def_357 (* (- 1.0) b.time__AT2)))
(let ((.def_360 (+ b.delta__AT1 .def_357)))
(let ((.def_361 (+ b.time__AT1 .def_360)))
(let ((.def_362 (= .def_361 0.0 )))
(let ((.def_363 (or .def_349 .def_362)))
(let ((.def_364 (or b.EVENT.1__AT1 .def_363)))
(let ((.def_355 (or .def_347 .def_354)))
(let ((.def_356 (or b.EVENT.1__AT1 .def_355)))
(let ((.def_365 (and .def_356 .def_364)))
(let ((.def_391 (and .def_365 .def_390)))
(let ((.def_351 (= .def_349 b.event_is_timed__AT2)))
(let ((.def_348 (= b.event_is_timed__AT1 .def_347)))
(let ((.def_352 (and .def_348 .def_351)))
(let ((.def_392 (and .def_352 .def_391)))
(let ((.def_472 (and .def_392 .def_471)))
(let ((.def_476 (and .def_472 .def_475)))
(let ((.def_480 (and .def_476 .def_479)))
(let ((.def_481 (and .def_276 .def_480)))
(let ((.def_500 (and .def_481 .def_499)))
(let ((.def_504 (and .def_500 .def_503)))
(let ((.def_301 (* .def_83 b.delta__AT1)))
(let ((.def_302 (+ b.speed_y__AT1 .def_301)))
(let ((.def_319 (<= .def_302 0.0 )))
(let ((.def_320 (not .def_319)))
(let ((.def_317 (<= b.speed_y__AT1 0.0 )))
(let ((.def_340 (or .def_317 .def_320)))
(let ((.def_303 (<= 0.0 .def_302)))
(let ((.def_339 (or .def_303 .def_306)))
(let ((.def_341 (and .def_339 .def_340)))
(let ((.def_342 (or .def_123 .def_341)))
(let ((.def_304 (not .def_303)))
(let ((.def_336 (or .def_304 .def_305)))
(let ((.def_318 (not .def_317)))
(let ((.def_335 (or .def_318 .def_319)))
(let ((.def_337 (and .def_335 .def_336)))
(let ((.def_338 (or .def_118 .def_337)))
(let ((.def_343 (and .def_338 .def_342)))
(let ((.def_332 (and .def_317 .def_319)))
(let ((.def_331 (and .def_303 .def_305)))
(let ((.def_333 (or .def_331 .def_332)))
(let ((.def_293 (+ .def_291 .def_292)))
(let ((.def_294 (* (- 1.0) .def_282)))
(let ((.def_297 (+ .def_294 .def_293)))
(let ((.def_298 (+ b.y__AT1 .def_297)))
(let ((.def_311 (<= .def_298 0.0 )))
(let ((.def_325 (not .def_311)))
(let ((.def_309 (<= b.y__AT1 .def_282)))
(let ((.def_326 (or .def_309 .def_325)))
(let ((.def_283 (<= .def_282 b.y__AT1)))
(let ((.def_323 (not .def_283)))
(let ((.def_299 (<= 0.0 .def_298)))
(let ((.def_324 (or .def_299 .def_323)))
(let ((.def_327 (and .def_324 .def_326)))
(let ((.def_321 (or .def_318 .def_320)))
(let ((.def_322 (not .def_321)))
(let ((.def_328 (or .def_322 .def_327)))
(let ((.def_313 (not .def_299)))
(let ((.def_314 (or .def_283 .def_313)))
(let ((.def_310 (not .def_309)))
(let ((.def_312 (or .def_310 .def_311)))
(let ((.def_315 (and .def_312 .def_314)))
(let ((.def_307 (or .def_304 .def_306)))
(let ((.def_308 (not .def_307)))
(let ((.def_316 (or .def_308 .def_315)))
(let ((.def_329 (and .def_316 .def_328)))
(let ((.def_300 (and .def_283 .def_299)))
(let ((.def_330 (and .def_300 .def_329)))
(let ((.def_334 (and .def_330 .def_333)))
(let ((.def_344 (and .def_334 .def_343)))
(let ((.def_345 (and .def_61 .def_344)))
(let ((.def_284 (and .def_61 .def_283)))
(let ((.def_279 (or .def_276 .def_278)))
(let ((.def_269 (or .def_189 .def_199)))
(let ((.def_273 (or b.counter.3__AT1 .def_269)))
(let ((.def_270 (or b.counter.2__AT1 .def_269)))
(let ((.def_268 (or .def_194 .def_199)))
(let ((.def_271 (and .def_268 .def_270)))
(let ((.def_272 (or .def_208 .def_271)))
(let ((.def_274 (and .def_272 .def_273)))
(let ((.def_280 (and .def_274 .def_279)))
(let ((.def_285 (and .def_280 .def_284)))
(let ((.def_263 (<= 0.0 b.delta__AT0)))
(let ((.def_49 (not b.EVENT.0__AT0)))
(let ((.def_47 (not b.EVENT.1__AT0)))
(let ((.def_132 (and .def_47 .def_49)))
(let ((.def_134 (not .def_132)))
(let ((.def_264 (or .def_134 .def_263)))
(let ((.def_265 (or b.EVENT.1__AT0 .def_264)))
(let ((.def_174 (= b.bool_atom__AT0 b.bool_atom__AT1)))
(let ((.def_169 (= b.counter.0__AT0 b.counter.0__AT1)))
(let ((.def_166 (= b.counter.1__AT0 b.counter.1__AT1)))
(let ((.def_163 (= b.counter.2__AT0 b.counter.2__AT1)))
(let ((.def_161 (= b.counter.3__AT0 b.counter.3__AT1)))
(let ((.def_164 (and .def_161 .def_163)))
(let ((.def_167 (and .def_164 .def_166)))
(let ((.def_170 (and .def_167 .def_169)))
(let ((.def_259 (and .def_170 .def_174)))
(let ((.def_260 (or .def_134 .def_259)))
(let ((.def_261 (or b.EVENT.1__AT0 .def_260)))
(let ((.def_248 (* b.delta__AT0 .def_68)))
(let ((.def_249 (* (- 1.0) b.speed_y__AT1)))
(let ((.def_252 (+ .def_249 .def_248)))
(let ((.def_253 (+ b.speed_y__AT0 .def_252)))
(let ((.def_254 (= .def_253 0.0 )))
(let ((.def_240 (* (- 1.0) b.y__AT1)))
(let ((.def_74 (* b.delta__AT0 b.speed_y__AT0)))
(let ((.def_243 (+ .def_74 .def_240)))
(let ((.def_67 (* b.delta__AT0 b.delta__AT0)))
(let ((.def_72 (* .def_67 .def_71)))
(let ((.def_244 (+ .def_72 .def_243)))
(let ((.def_245 (+ b.y__AT0 .def_244)))
(let ((.def_246 (= .def_245 0.0 )))
(let ((.def_152 (= b.x__AT0 b.x__AT1)))
(let ((.def_247 (and .def_152 .def_246)))
(let ((.def_255 (and .def_247 .def_254)))
(let ((.def_256 (or .def_134 .def_255)))
(let ((.def_155 (= b.y__AT0 b.y__AT1)))
(let ((.def_235 (and .def_152 .def_155)))
(let ((.def_158 (= b.speed_y__AT0 b.speed_y__AT1)))
(let ((.def_236 (and .def_158 .def_235)))
(let ((.def_232 (= b.delta__AT0 0.0 )))
(let ((.def_233 (and .def_132 .def_232)))
(let ((.def_234 (not .def_233)))
(let ((.def_237 (or .def_234 .def_236)))
(let ((.def_238 (or b.EVENT.1__AT0 .def_237)))
(let ((.def_225 (and .def_158 .def_170)))
(let ((.def_226 (or b.bool_atom__AT0 .def_225)))
(let ((.def_200 (or b.counter.0__AT0 .def_199)))
(let ((.def_30 (not b.counter.0__AT0)))
(let ((.def_198 (or .def_30 b.counter.0__AT1)))
(let ((.def_201 (and .def_198 .def_200)))
(let ((.def_202 (and .def_189 .def_201)))
(let ((.def_203 (or b.counter.1__AT0 .def_202)))
(let ((.def_28 (not b.counter.1__AT0)))
(let ((.def_197 (or .def_28 b.counter.1__AT1)))
(let ((.def_204 (and .def_197 .def_203)))
(let ((.def_216 (and .def_194 .def_204)))
(let ((.def_217 (or b.counter.2__AT0 .def_216)))
(let ((.def_211 (and .def_30 .def_189)))
(let ((.def_212 (or b.counter.1__AT0 .def_211)))
(let ((.def_213 (and .def_197 .def_212)))
(let ((.def_214 (and b.counter.2__AT1 .def_213)))
(let ((.def_33 (not b.counter.2__AT0)))
(let ((.def_215 (or .def_33 .def_214)))
(let ((.def_218 (and .def_215 .def_217)))
(let ((.def_219 (and b.counter.3__AT1 .def_218)))
(let ((.def_220 (or b.counter.3__AT0 .def_219)))
(let ((.def_205 (and b.counter.2__AT1 .def_204)))
(let ((.def_206 (or b.counter.2__AT0 .def_205)))
(let ((.def_192 (or b.counter.1__AT0 b.counter.1__AT1)))
(let ((.def_190 (and b.counter.0__AT1 .def_189)))
(let ((.def_191 (or .def_28 .def_190)))
(let ((.def_193 (and .def_191 .def_192)))
(let ((.def_195 (and .def_193 .def_194)))
(let ((.def_196 (or .def_33 .def_195)))
(let ((.def_207 (and .def_196 .def_206)))
(let ((.def_209 (and .def_207 .def_208)))
(let ((.def_36 (not b.counter.3__AT0)))
(let ((.def_210 (or .def_36 .def_209)))
(let ((.def_221 (and .def_210 .def_220)))
(let ((.def_186 (* b.speed_y__AT0 b.speed_y__AT0)))
(let ((.def_187 (= .def_185 .def_186)))
(let ((.def_183 (+ b.speed_y__AT0 b.speed_y__AT1)))
(let ((.def_184 (= .def_183 0.0 )))
(let ((.def_188 (and .def_184 .def_187)))
(let ((.def_222 (and .def_188 .def_221)))
(let ((.def_182 (not b.bool_atom__AT0)))
(let ((.def_223 (or .def_182 .def_222)))
(let ((.def_54 (* (- 1.0) b.x__AT0)))
(let ((.def_55 (* b.x__AT0 .def_54)))
(let ((.def_179 (= b.y__AT0 .def_55)))
(let ((.def_88 (<= 0.0 b.speed_y__AT0)))
(let ((.def_89 (not .def_88)))
(let ((.def_180 (and .def_89 .def_179)))
(let ((.def_181 (= b.bool_atom__AT0 .def_180)))
(let ((.def_224 (and .def_181 .def_223)))
(let ((.def_227 (and .def_224 .def_226)))
(let ((.def_228 (and .def_152 .def_227)))
(let ((.def_229 (and .def_155 .def_228)))
(let ((.def_230 (or .def_132 .def_229)))
(let ((.def_231 (or b.EVENT.1__AT0 .def_230)))
(let ((.def_239 (and .def_231 .def_238)))
(let ((.def_257 (and .def_239 .def_256)))
(let ((.def_139 (= b.time__AT0 b.time__AT1)))
(let ((.def_153 (and .def_139 .def_152)))
(let ((.def_156 (and .def_153 .def_155)))
(let ((.def_159 (and .def_156 .def_158)))
(let ((.def_171 (and .def_159 .def_170)))
(let ((.def_175 (and .def_171 .def_174)))
(let ((.def_176 (or .def_47 .def_175)))
(let ((.def_142 (* (- 1.0) b.time__AT1)))
(let ((.def_145 (+ b.delta__AT0 .def_142)))
(let ((.def_146 (+ b.time__AT0 .def_145)))
(let ((.def_147 (= .def_146 0.0 )))
(let ((.def_148 (or .def_134 .def_147)))
(let ((.def_149 (or b.EVENT.1__AT0 .def_148)))
(let ((.def_140 (or .def_132 .def_139)))
(let ((.def_141 (or b.EVENT.1__AT0 .def_140)))
(let ((.def_150 (and .def_141 .def_149)))
(let ((.def_177 (and .def_150 .def_176)))
(let ((.def_136 (= .def_134 b.event_is_timed__AT1)))
(let ((.def_133 (= b.event_is_timed__AT0 .def_132)))
(let ((.def_137 (and .def_133 .def_136)))
(let ((.def_178 (and .def_137 .def_177)))
(let ((.def_258 (and .def_178 .def_257)))
(let ((.def_262 (and .def_258 .def_261)))
(let ((.def_266 (and .def_262 .def_265)))
(let ((.def_267 (and .def_47 .def_266)))
(let ((.def_286 (and .def_267 .def_285)))
(let ((.def_31 (and .def_28 .def_30)))
(let ((.def_34 (and .def_31 .def_33)))
(let ((.def_37 (and .def_34 .def_36)))
(let ((.def_287 (and .def_37 .def_286)))
(let ((.def_84 (* b.delta__AT0 .def_83)))
(let ((.def_85 (+ b.speed_y__AT0 .def_84)))
(let ((.def_102 (<= .def_85 0.0 )))
(let ((.def_103 (not .def_102)))
(let ((.def_100 (<= b.speed_y__AT0 0.0 )))
(let ((.def_125 (or .def_100 .def_103)))
(let ((.def_86 (<= 0.0 .def_85)))
(let ((.def_124 (or .def_86 .def_89)))
(let ((.def_126 (and .def_124 .def_125)))
(let ((.def_127 (or .def_123 .def_126)))
(let ((.def_87 (not .def_86)))
(let ((.def_120 (or .def_87 .def_88)))
(let ((.def_101 (not .def_100)))
(let ((.def_119 (or .def_101 .def_102)))
(let ((.def_121 (and .def_119 .def_120)))
(let ((.def_122 (or .def_118 .def_121)))
(let ((.def_128 (and .def_122 .def_127)))
(let ((.def_115 (and .def_100 .def_102)))
(let ((.def_114 (and .def_86 .def_88)))
(let ((.def_116 (or .def_114 .def_115)))
(let ((.def_75 (+ .def_72 .def_74)))
(let ((.def_76 (* (- 1.0) .def_55)))
(let ((.def_79 (+ .def_76 .def_75)))
(let ((.def_80 (+ b.y__AT0 .def_79)))
(let ((.def_94 (<= .def_80 0.0 )))
(let ((.def_108 (not .def_94)))
(let ((.def_92 (<= b.y__AT0 .def_55)))
(let ((.def_109 (or .def_92 .def_108)))
(let ((.def_56 (<= .def_55 b.y__AT0)))
(let ((.def_106 (not .def_56)))
(let ((.def_81 (<= 0.0 .def_80)))
(let ((.def_107 (or .def_81 .def_106)))
(let ((.def_110 (and .def_107 .def_109)))
(let ((.def_104 (or .def_101 .def_103)))
(let ((.def_105 (not .def_104)))
(let ((.def_111 (or .def_105 .def_110)))
(let ((.def_96 (not .def_81)))
(let ((.def_97 (or .def_56 .def_96)))
(let ((.def_93 (not .def_92)))
(let ((.def_95 (or .def_93 .def_94)))
(let ((.def_98 (and .def_95 .def_97)))
(let ((.def_90 (or .def_87 .def_89)))
(let ((.def_91 (not .def_90)))
(let ((.def_99 (or .def_91 .def_98)))
(let ((.def_112 (and .def_99 .def_111)))
(let ((.def_82 (and .def_56 .def_81)))
(let ((.def_113 (and .def_82 .def_112)))
(let ((.def_117 (and .def_113 .def_116)))
(let ((.def_129 (and .def_117 .def_128)))
(let ((.def_130 (and .def_61 .def_129)))
(let ((.def_62 (and .def_56 .def_61)))
(let ((.def_50 (or .def_47 .def_49)))
(let ((.def_40 (or .def_28 .def_30)))
(let ((.def_44 (or b.counter.3__AT0 .def_40)))
(let ((.def_41 (or b.counter.2__AT0 .def_40)))
(let ((.def_39 (or .def_30 .def_33)))
(let ((.def_42 (and .def_39 .def_41)))
(let ((.def_43 (or .def_36 .def_42)))
(let ((.def_45 (and .def_43 .def_44)))
(let ((.def_51 (and .def_45 .def_50)))
(let ((.def_63 (and .def_51 .def_62)))
(let ((.def_25 (= b.y__AT0 10.0 )))
(let ((.def_21 (= b.x__AT0 0.0 )))
(let ((.def_17 (= b.time__AT0 0.0 )))
(let ((.def_19 (and .def_17 b.event_is_timed__AT0)))
(let ((.def_22 (and .def_19 .def_21)))
(let ((.def_26 (and .def_22 .def_25)))
(let ((.def_38 (and .def_26 .def_37)))
(let ((.def_64 (and .def_38 .def_63)))
(let ((.def_7 (and .def_4 .def_6)))
(let ((.def_10 (and .def_7 .def_9)))
(let ((.def_13 (and .def_10 .def_12)))
(let ((.def_14 (not .def_13)))
(let ((.def_65 (and .def_14 .def_64)))
(let ((.def_131 (and .def_65 .def_130)))
(let ((.def_288 (and .def_131 .def_287)))
(let ((.def_346 (and .def_288 .def_345)))
(let ((.def_505 (and .def_346 .def_504)))
(let ((.def_563 (and .def_505 .def_562)))
(let ((.def_714 (and .def_563 .def_713)))
(let ((.def_772 (and .def_714 .def_771)))
.def_772)))))))))))))))))))))))))))))))))))))))))))))))))))))))))))))))))))))))))))))))))))))))))))))))))))))))))))))))))))))))))))))))))))))))))))))))))))))))))))))))))))))))))))))))))))))))))))))))))))))))))))))))))))))))))))))))))))))))))))))))))))))))))))))))))))))))))))))))))))))))))))))))))))))))))))))))))))))))))))))))))))))))))))))))))))))))))))))))))))))))))))))))))))))))))))))))))))))))))))))))))))))))))))))))))))))))))))))))))))))))))))))))))))))))))))))))))))))))))))))))))))))))))))))))))))))))))))))))))))))))))))))))))))))))))))))))))))))))))))))))))))))))))))))))))))))))))))))))))))))))))))))))))))))))))))))))))))))))))))))))))))))))))))))))))))))))))))))))))))))))))))
(check-sat)
(exit)
